005 006 005 005 004 004 004 002 004 005 005 008 009 005 007 009 009 013 012 009 009 012 013 015 017 012 009 011 011 008 016
004 005 005 005 005 004 003 003 004 004 004 004 006 004 007 009 008 013 010 006 011 015 018 019 018 010 009 009 010 012 012
002 003 003 003 003 002 003 003 003 003 006 005 005 005 005 008 015 012 010 009 012 011 010 011 019 011 008 007 008 011 011
002 001 002 002 002 002 001 003 004 003 004 007 004 005 006 010 012 014 011 011 008 008 012 008 011 008 007 007 007 009 009
003 001 001 002 001 001 001 001 004 004 004 006 007 005 004 009 010 014 011 009 009 007 010 007 007 007 007 008 014 008 007
004 002 002 002 001 001 001 003 002 004 004 004 005 013 006 006 009 005 008 007 007 006 005 005 004 008 008 007 013 010 005
002 002 001 002 001 001 001 002 003 003 003 004 004 004 004 005 006 008 007 008 005 006 005 003 004 007 008 012 011 010 007
001 001 002 001 001 001 001 002 003 002 003 002 006 006 006 006 017 006 006 010 006 006 005 003 003 007 010 009 007 008 007
000 001 001 002 001 001 001 001 002 002 003 003 004 010 004 008 016 014 006 011 008 005 002 003 003 006 008 008 005 007 007
000 000 001 001 001 001 001 002 002 002 002 003 006 017 005 006 010 011 006 006 007 006 003 003 008 004 005 006 006 005 004
000 000 001 001 002 001 002 002 002 001 001 002 004 004 004 003 006 005 004 005 005 005 004 003 003 003 003 005 004 004 004
000 001 001 000 002 003 002 002 001 001 002 002 002 002 003 003 004 002 003 002 004 004 003 002 003 003 002 002 003 004 004
000 001 001 001 002 001 002 001 001 001 002 002 001 001 001 001 002 002 002 003 003 003 003 002 002 002 002 003 002 004 003
000 001 001 001 001 002 001 002 001 001 001 001 003 003 001 001 001 001 002 002 002 003 002 002 001 001 001 001 001 002 002
001 001 001 001 001 001 001 001 001 001 001 001 003 002 001 002 001 001 003 002 002 003 002 002 001 001 001 001 001 001 001
000 001 001 001 001 002 001 000 001 001 001 000 001 001 001 001 001 001 002 002 002 002 002 002 001 001 001 001 001 001 001
000 001 001 001 001 001 001 001 001 001 001 001 001 001 000 001 001 002 003 003 002 002 002 002 001 001 001 001 001 001 001
001 000 000 001 000 001 001 001 001 001 001 000 000 001 000 001 001 001 002 002 001 001 002 001 001 001 001 001 001 001 001
001 001 000 001 001 001 001 001 001 001 001 001 000 000 000 000 000 000 002 001 002 001 002 001 001 001 000 001 001 001 001
001 001 000 001 001 001 001 001 001 001 000 000 000 000 000 000 000 000 001 002 002 002 002 001 -99 001 000 001 -99 001 001
001 001 001 000 001 001 001 001 001 000 000 000 000 000 000 000 000 001 002 002 002 005 003 -99 -99 001 000 001 -99 -99 -99
000 001 000 000 001 001 001 001 001 000 000 000 000 000 000 000 001 003 001 002 003 004 003 002 001 -99 -99 -99 -99 -99 -99
000 000 000 000 001 001 001 001 001 000 000 000 000 000 000 000 002 003 002 002 003 004 004 002 002 -99 -99 -99 -99 -99 -99
000 000 000 000 001 002 001 000 000 000 000 000 000 000 000 000 003 002 002 002 003 004 004 003 004 -99 -99 -99 -99 -99 002
000 000 001 001 001 002 001 000 000 000 000 000 000 000 000 000 002 002 002 002 004 005 003 004 005 -99 -99 -99 -99 -99 002
000 000 000 001 001 001 000 000 000 000 000 000 000 000 000 000 001 002 002 003 005 005 004 -99 -99 -99 -99 -99 -99 004 003
000 001 001 000 000 000 000 001 000 000 000 000 000 000 000 000 001 002 003 003 004 003 003 -99 006 -99 -99 008 006 005 005
001 000 001 000 000 000 001 001 000 000 000 000 000 000 000 000 001 002 002 003 003 004 004 006 008 -99 010 010 007 007 007
000 000 000 000 000 000 000 000 000 000 000 000 000 000 000 000 001 002 002 002 002 004 004 005 011 013 008 010 008 013 011
000 000 000 000 000 000 000 000 000 000 000 000 000 000 000 000 001 001 001 001 002 003 003 006 009 011 008 011 010 018 016
000 000 000 000 000 000 000 000 000 000 000 000 000 000 000 000 001 001 001 002 001 004 002 005 008 008 010 011 014 012 010
000 000 000 000 000 000 000 000 000 000 000 000 000 000 000 001 000 000 001 001 001 003 001 003 005 006 011 011 012 010 007
000 000 000 000 000 000 000 000 000 000 000 000 000 000 000 000 000 000 001 001 001 000 001 002 002 003 007 011 014 022 008
000 000 000 000 000 000 000 000 000 000 000 000 000 000 000 000 000 000 000 000 000 000 001 001 001 002 004 006 010 017 010
000 000 000 000 000 000 000 000 000 000 000 000 000 000 000 000 000 000 000 000 000 000 000 001 001 001 002 004 006 012 011
000 000 000 000 000 000 000 000 000 000 000 000 000 000 000 000 000 000 000 000 000 000 000 001 001 001 001 002 005 009 008
000 000 000 000 000 -99 000 000 000 000 000 000 000 000 000 000 000 000 000 000 000 000 000 001 001 000 000 000 002 005 006
000 -99 000 000 000 000 000 000 000 000 000 000 000 000 000 000 000 000 000 000 000 000 000 000 000 000 000 000 001 002 005
-99 -99 000 000 000 000 000 000 -99 -99 000 000 000 000 000 000 000 000 000 000 000 000 000 000 000 000 000 000 000 001 003
000 000 000 000 000 -99 000 000 -99 -99 000 000 000 000 000 000 000 000 000 000 000 000 000 000 000 000 000 000 000 002 002
000 000 000 000 000 -99 000 000 -99 000 000 000 000 000 000 000 000 000 000 000 000 000 000 000 000 000 000 000 000 002 002
-99 000 000 000 -99 -99 000 000 000 000 000 000 000 000 000 001 001 001 000 000 000 000 000 000 000 000 000 000 000 001 001
-99 -99 -99 -99 -99 000 -99 -99 000 000 000 000 000 000 000 001 001 001 000 000 000 000 000 000 001 000 000 000 000 000 001
000 -99 -99 -99 -99 000 000 -99 -99 000 000 000 000 000 000 000 001 001 000 000 000 000 000 000 001 000 000 000 000 000 001
-99 -99 -99 -99 000 -99 -99 -99 -99 000 000 000 000 000 000 000 000 000 000 000 000 000 000 000 000 000 000 000 000 -99 000
-99 -99 -99 000 -99 -99 -99 -99 000 000 000 000 000 000 000 000 000 000 000 000 000 000 000 000 000 000 000 000 -99 -99 000
000 -99 -99 -99 -99 -99 -99 -99 000 000 000 000 000 000 000 000 -99 000 000 000 000 000 000 000 000 000 000 000 -99 000 000
000 -99 -99 -99 -99 -99 -99 -99 000 000 000 000 000 000 000 -99 -99 000 -99 000 000 -99 000 000 000 000 000 000 000 000 000
000 -99 -99 -99 -99 -99 -99 -99 -99 -99 -99 -99 -99 -99 000 -99 -99 -99 -99 000 000 -99 000 000 000 000 000 000 000 000 000
-99 -99 -99 -99 -99 -99 -99 -99 000 -99 -99 -99 -99 -99 -99 -99 -99 -99 -99 -99 -99 000 -99 000 000 -99 000 000 000 -99 -99
000 -99 -99 -99 -99 -99 -99 -99 -99 -99 -99 -99 000 -99 -99 -99 -99 -99 000 000 000 000 -99 000 -99 000 000 000 000 -99 -99
-99 -99 -99 -99 -99 -99 -99 -99 -99 -99 -99 -99 000 -99 -99 -99 -99 -99 000 000 000 -99 -99 -99 -99 000 -99 -99 -99 -99 -99
-99 -99 -99 -99 -99 -99 -99 -99 -99 -99 000 000 -99 -99 -99 -99 -99 000 000 000 000 -99 -99 -99 -99 -99 -99 -99 -99 -99 -99
-99 -99 -99 -99 -99 -99 -99 -99 -99 -99 -99 -99 -99 -99 -99 -99 -99 000 000 000 -99 -99 -99 -99 -99 -99 -99 -99 -99 -99 -99
-99 -99 -99 -99 -99 -99 -99 000 -99 -99 -99 -99 -99 -99 -99 -99 -99 000 000 -99 -99 -99 -99 -99 -99 -99 -99 -99 -99 -99 -99
